Ordonnancement/plne/source/glpk_resultat/2job/2job_20.sol
Problem:    glpsolRcpsp
Rows:       62
Columns:    19 (18 integer, 18 binary)
Non-zeros:  193
Status:     INTEGER OPTIMAL
Objective:  obj = 6 (MINimum)

   No.   Row name        Activity     Lower bound   Upper bound
------ ------------    ------------- ------------- -------------
     1 periode[1]                  6             6             = 
     2 periode[2]                  3             3             = 
     3 complet[1,1]                4                           6 
     4 complet[1,2]                3                           6 
     5 complet[1,3]                2                           6 
     6 complet[1,4]                1                           6 
     7 complet[1,5]                0                           6 
     8 complet[1,6]                6                           6 
     9 complet[1,7]                0                           6 
    10 complet[2,1]                3                           3 
    11 complet[2,2]                3                           3 
    12 complet[2,3]               -1                           3 
    13 complet[2,4]                1                           3 
    14 complet[2,5]                0                           3 
    15 complet[2,6]                3                           3 
    16 complet[2,7]                0                           3 
    17 cmax[1,1]                   5            -0               
    18 cmax[1,2]                   4            -0               
    19 cmax[1,3]                   3            -0               
    20 cmax[1,4]                   2            -0               
    21 cmax[1,5]                   1            -0               
    22 cmax[1,6]                   0            -0               
    23 cmax[1,7]                   6            -0               
    24 cmax[1,8]                   6            -0               
    25 cmax[1,9]                   6            -0               
    26 cmax[2,1]                   6            -0               
    27 cmax[2,2]                   6            -0               
    28 cmax[2,3]                   6            -0               
    29 cmax[2,4]                   2            -0               
    30 cmax[2,5]                   1            -0               
    31 cmax[2,6]                   0            -0               
    32 cmax[2,7]                   6            -0               
    33 cmax[2,8]                   6            -0               
    34 cmax[2,9]                   6            -0               
    35 ressource[1,1]
                                   2                           7 
    36 ressource[1,2]
                                   2                           7 
    37 ressource[1,3]
                                   2                           7 
    38 ressource[1,4]
                                   4                           7 
    39 ressource[1,5]
                                   4                           7 
    40 ressource[1,6]
                                   4                           7 
    41 ressource[1,7]
                                   0                           7 
    42 ressource[1,8]
                                   0                           7 
    43 ressource[1,9]
                                   0                           7 
    44 ressource[2,1]
                                   5                          11 
    45 ressource[2,2]
                                   5                          11 
    46 ressource[2,3]
                                   5                          11 
    47 ressource[2,4]
                                   9                          11 
    48 ressource[2,5]
                                   9                          11 
    49 ressource[2,6]
                                   9                          11 
    50 ressource[2,7]
                                   0                          11 
    51 ressource[2,8]
                                   0                          11 
    52 ressource[2,9]
                                   0                          11 
    53 ressource[3,1]
                                   1                          11 
    54 ressource[3,2]
                                   1                          11 
    55 ressource[3,3]
                                   1                          11 
    56 ressource[3,4]
                                   7                          11 
    57 ressource[3,5]
                                   7                          11 
    58 ressource[3,6]
                                   7                          11 
    59 ressource[3,7]
                                   0                          11 
    60 ressource[3,8]
                                   0                          11 
    61 ressource[3,9]
                                   0                          11 
    62 obj                         6                             

   No. Column name       Activity     Lower bound   Upper bound
------ ------------    ------------- ------------- -------------
     1 x[1,1]       *              1             0             1 
     2 x[1,2]       *              1             0             1 
     3 x[1,3]       *              1             0             1 
     4 x[1,4]       *              1             0             1 
     5 x[1,5]       *              1             0             1 
     6 x[1,6]       *              1             0             1 
     7 x[1,7]       *              0             0             1 
     8 x[1,8]       *              0             0             1 
     9 x[1,9]       *              0             0             1 
    10 x[2,1]       *              0             0             1 
    11 x[2,2]       *              0             0             1 
    12 x[2,3]       *              0             0             1 
    13 x[2,4]       *              1             0             1 
    14 x[2,5]       *              1             0             1 
    15 x[2,6]       *              1             0             1 
    16 x[2,7]       *              0             0             1 
    17 x[2,8]       *              0             0             1 
    18 x[2,9]       *              0             0             1 
    19 z                           6                             

Integer feasibility conditions:

KKT.PE: max.abs.err = 0.00e+00 on row 0
        max.rel.err = 0.00e+00 on row 0
        High quality

KKT.PB: max.abs.err = 0.00e+00 on row 0
        max.rel.err = 0.00e+00 on row 0
        High quality

End of output
